c 46 Maven
c 40 Hibernate2ndLvlCache
c 20 Server
c 17 Gatling
c 26 PostgreSQL
c 43 Cassandra
c 48 False
c 9 BackEnd
c 31 ElasticSearch
c 4 Production
c 16 MySQL
c 27 MySql
c 12 Development
c 10 Database
c 33 Oracle
c 39 EhCache
c 1 OAuth2
c 35 jhipster
c 14 MicroserviceGateway
c 37 JWT
c 32 SocialLogin
c 45 InternationalizationSupport
c 29 HTTPSession
c 3 MariaDB
c 6 H2
c 5 InMemory
c 28 DiskBased
c 11 Base
c 7 SQL
c 23 Monolithic
c 41 Libsass
c 42 HazelCast
c 44 Uaa
c 13 Oracle12c
c 19 UaaServer
c 2 Authentication
c 21 MicroserviceApplication
c 18 TestingFrameworks
c 47 SpringWebSockets
c 34 Protractor
c 38 PostgreSQLDev
c 22 MongoDB
c 8 Gradle
c 25 MariaDBDev
c 15 Application
c 24 Cucumber
c 36 ClusteredSession
c 30 Generator
p cnf 48 510
-1 2 0
-3 4 0
-5 6 0
-4 7 0
-8 9 0
-10 11 0
-6 12 0
-13 12 0
-14 15 0
-16 4 0
-17 18 0
-14 15 0
-19 20 0
-21 20 0
-5 6 0
-13 12 0
-3 4 0
-22 10 0
-23 15 0
-24 18 0
-14 15 0
-17 18 0
-21 20 0
-25 12 0
-13 12 0
-3 4 0
-6 12 0
-14 15 0
-26 4 0
-23 15 0
-26 4 0
-9 11 0
-27 12 0
-28 6 0
-21 20 0
-29 2 0
-28 6 0
-21 20 0
-23 15 0
-10 11 0
-27 12 0
-13 12 0
-24 18 0
-20 30 0
-3 4 0
-31 7 0
-27 12 0
-28 6 0
-32 11 0
-21 20 0
-9 11 0
-15 30 0
-33 4 0
-19 20 0
-13 12 0
-19 20 0
-12 7 0
-34 18 0
-26 4 0
-8 9 0
-6 12 0
-12 7 0
-17 18 0
-27 12 0
-5 6 0
-26 4 0
-4 7 0
-5 6 0
-28 6 0
-15 30 0
-15 30 0
-27 12 0
-5 6 0
-28 6 0
-28 6 0
-6 12 0
-5 6 0
-6 12 0
-13 12 0
-11 35 0
-36 11 0
-27 12 0
-37 2 0
-21 20 0
-22 10 0
-34 18 0
-5 6 0
-5 6 0
-2 11 0
-36 11 0
-19 20 0
-37 2 0
-33 4 0
-33 4 0
-12 7 0
-28 6 0
-26 4 0
-33 4 0
-3 4 0
-38 12 0
-3 4 0
-19 20 0
-27 12 0
-28 6 0
-20 30 0
-16 4 0
-5 6 0
-16 4 0
-6 12 0
-14 15 0
-12 7 0
-39 40 0
-28 6 0
-21 20 0
-33 4 0
-38 12 0
-41 11 0
-26 4 0
-28 6 0
-25 12 0
-5 6 0
-33 4 0
-13 12 0
-28 6 0
-42 40 0
-37 2 0
-12 7 0
-42 40 0
-38 12 0
-43 10 0
-27 12 0
-8 9 0
-40 7 0
-13 12 0
-19 20 0
-25 12 0
-19 20 0
-24 18 0
-25 12 0
-38 12 0
-39 40 0
-39 40 0
-26 4 0
-23 15 0
-26 4 0
-42 40 0
-28 6 0
-20 30 0
-19 20 0
-5 6 0
-28 6 0
-39 40 0
-5 6 0
-44 2 0
-45 11 0
-16 4 0
-21 20 0
-16 4 0
-17 18 0
-12 7 0
-13 12 0
-13 12 0
-19 20 0
-28 6 0
-38 12 0
-4 7 0
-27 12 0
-6 12 0
-16 4 0
-5 6 0
-31 7 0
-33 4 0
-39 40 0
-40 7 0
-31 7 0
-17 18 0
-26 4 0
-10 11 0
-9 11 0
-3 4 0
-2 11 0
-24 18 0
-7 10 0
-33 4 0
-45 11 0
-44 2 0
-26 4 0
-42 40 0
-16 4 0
-33 4 0
-16 4 0
-1 2 0
-23 15 0
-38 12 0
-22 10 0
-14 15 0
-20 30 0
-29 2 0
-5 6 0
-21 20 0
-26 4 0
-15 30 0
-23 15 0
-18 11 0
-38 12 0
-28 6 0
-41 11 0
-46 9 0
-7 10 0
-27 12 0
-5 6 0
-25 12 0
-47 11 0
-14 15 0
-25 12 0
-43 10 0
-13 12 0
-25 12 0
-14 15 0
-16 4 0
-18 11 0
-20 30 0
-38 12 0
-42 40 0
-32 11 0
-47 11 0
-23 15 0
-40 7 0
-16 4 0
-34 18 0
-10 11 0
-1 2 0
-14 15 0
-18 11 0
-4 7 0
-6 12 0
-24 18 0
-25 12 0
-47 11 0
-33 4 0
-7 10 0
-13 12 0
-21 20 0
-21 20 0
-6 12 0
-30 11 0
-28 6 0
-34 18 0
-19 20 0
-5 6 0
-9 11 0
-18 11 0
-16 4 0
-38 12 0
-28 6 0
-5 6 0
-21 20 0
-4 7 0
-30 11 0
-42 40 0
-23 15 0
-45 11 0
-44 2 0
-46 9 0
-40 7 0
-45 11 0
-44 2 0
-47 11 0
-13 12 0
-6 12 0
-46 9 0
-4 7 0
-17 18 0
-22 10 0
-28 6 0
-26 4 0
-24 18 0
-29 2 0
-25 12 0
-27 12 0
-28 6 0
-25 12 0
-28 6 0
-5 6 0
-32 11 0
-33 4 0
-14 15 0
-28 6 0
-16 4 0
-20 30 0
-3 4 0
-33 4 0
-17 18 0
-5 6 0
-31 7 0
-39 40 0
-5 6 0
-8 9 0
-26 4 0
-38 12 0
-21 20 0
-25 12 0
-17 18 0
-15 30 0
-14 15 0
-31 7 0
-40 7 0
-42 40 0
-6 12 0
-27 12 0
-24 18 0
-21 20 0
-38 12 0
-39 40 0
-28 6 0
-40 7 0
-5 6 0
-3 4 0
-5 6 0
-25 12 0
-28 6 0
-15 30 0
-6 12 0
-5 6 0
-5 6 0
-36 11 0
-3 4 0
-39 40 0
-28 6 0
-26 4 0
-33 4 0
-38 12 0
-23 15 0
-28 6 0
-23 15 0
-34 18 0
-37 2 0
-16 4 0
-28 6 0
-33 4 0
-23 15 0
-15 30 0
-24 18 0
-25 12 0
-13 12 0
-19 20 0
-23 15 0
-5 6 0
-23 15 0
-41 11 0
-5 6 0
-19 20 0
-12 7 0
-12 7 0
-6 12 0
-23 15 0
-43 10 0
-28 6 0
-31 7 0
-41 11 0
-32 11 0
-27 12 0
-29 2 0
-11 35 0
-16 4 0
-30 11 0
-6 12 0
-36 11 0
-28 6 0
-34 18 0
-5 6 0
-20 30 0
-26 4 0
-19 20 0
-3 4 0
-14 15 0
-33 4 0
-4 7 0
-34 18 0
-13 12 0
-31 7 0
-3 4 0
-6 12 0
-30 11 0
-3 4 0
-3 4 0
-5 6 0
-27 12 0
-25 12 0
-7 10 0
-16 4 0
-28 6 0
-40 7 0
-21 20 0
-5 6 0
-2 11 0
-31 7 0
-20 30 0
-3 4 0
-28 6 0
-28 6 0
-1 2 0
-33 4 0
-27 12 0
-40 7 0
-38 12 0
-5 6 0
-23 15 0
-25 12 0
-19 20 0
-21 20 0
-14 15 0
-26 4 0
-23 15 0
-3 4 0
-13 12 0
-43 10 0
-19 20 0
-5 6 0
-19 20 0
-14 15 0
-38 12 0
-25 12 0
-4 7 0
-27 12 0
-14 15 0
-16 4 0
-15 30 0
-46 9 0
-5 6 0
-14 15 0
-42 40 0
-38 12 0
-28 6 0
-2 11 0
-34 18 0
-38 12 0
-6 12 0
35 0
-15 14 23 0
-14 -23 0
-2 29 44 1 37 0
-1 -37 0
-44 -1 0
-44 -37 0
-29 -44 0
-29 -37 0
-29 -1 0
-6 28 5 0
-28 -5 0
-20 21 19 0
-21 -19 0
-18 24 0
-18 17 0
-7 12 0
-35 11 0
-11 30 0
-30 20 15 0
-20 -15 0
-11 18 0
-40 42 39 0
-42 -39 0
-4 16 33 3 26 0
-16 -3 0
-3 -26 0
-33 -26 0
-16 -33 0
-33 -3 0
-16 -26 0
48 35 0
-12 13 6 38 25 27 0
-38 -27 0
-25 -27 0
-13 -25 0
-6 -38 0
-13 -38 0
-13 -27 0
-13 -6 0
-6 -27 0
-38 -25 0
-6 -25 0
-10 7 43 22 0
-7 -22 0
-7 -43 0
-43 -22 0
-7 4 0
-9 8 46 0
-8 -46 0
-1 32 21 7 22 0
20 34 0
-19 44 0
-33 6 13 0
-41 15 0
1 32 21 7 22 43 0
-20 -34 0
-16 6 27 0
-21 37 44 0
-14 37 44 0
-23 37 29 1 0
-3 6 25 0
-26 6 38 0
-20 9 0
-20 2 0
-15 9 0
-15 2 0
-47 15 0
-36 15 0
-32 29 37 0
-32 23 0
-32 7 22 0
